n_res = 3;
rcap = [15, 111, 111];
rtype = [1, 2, 2];
n_tasks = 16;
modes = [ {1, 2, 3}, {4, 5, 6}, {7, 8, 9}, {10, 11, 12}, {13, 14, 15}, {16, 17, 18}, {19, 20, 21}, {22, 23, 24}, {25, 26, 27}, {28, 29, 30}, {31, 32, 33}, {34, 35, 36}, {37, 38, 39}, {40, 41, 42}, {43, 44, 45}, {46, 47, 48} ];
succ = [ {5, 8, 9}, {4, 11}, {4, 5, 8}, {6, 12}, {10, 14}, {7}, {9, 13, 14}, {10, 14}, {15, 16}, {11, 12}, {13, 15}, {15, 16}, {16}, {}, {}, {} ];
n_opt = 48;
dur = [3, 7, 9, 1, 1, 9, 3, 3, 8, 6, 6, 9, 1, 3, 4, 1, 9, 10, 1, 9, 9, 1, 3, 4, 1, 2, 5, 7, 8, 8, 3, 8, 10, 4, 6, 7, 1, 2, 4, 7, 9, 10, 2, 3, 8, 3, 4, 5];
rreq = [|  0,  8,  0,  9, 10,  0,  6,  5,  0,  4,  6,  2,  0,  0,  8,  0,  8,  6,  2,  0,  0,  9,  0,  0,  0,  0,  0,  0,  0,  4,  5,  1,  0,  9,  8,  0,  6,  0,  0,  7,  6,  6,  4,  3,  0,  0,  0,  0
        |  7,  4,  2,  6,  4,  3,  8,  7,  7,  9,  8,  7,  8,  6,  6,  6,  5,  4,  9,  7,  8,  7,  4,  3,  6,  6,  5, 10, 10,  9,  3,  3,  3,  3,  2,  1,  5,  5,  4,  7,  4,  4, 10, 10, 10,  7,  5,  5
        |  3,  2,  2,  8, 10,  5,  8,  9,  7,  8,  6,  5,  7,  4,  3,  9,  8,  8,  6,  6,  5,  4,  3,  3,  7,  5,  3,  8,  4,  5,  3,  3,  1,  8,  6,  6,  6,  5,  2,  8,  6,  4,  8,  6,  3,  7,  6,  5 |];
